c Random 4-CNF over 20 variables and 80 clauses
c Generated with `cnfgen`
c (C) 2012-2016 Massimo Lauria <lauria.massimo@gmail.com>
c https://massimolauria.github.io/cnfgen
c
c COMMAND LINE: cnfgen --output tmp-4-20-80.dimacs --output-format dimacs randkcnf 4 20 80
c
c sdimacs generated by gen-sdimacs
c
p cnf 20 80
e 11 12 13 14 15 16 17 18 19 20 0
r 0.37 1 2 3 4 5 6 7 8 9 10 0
4 10 -15 20 0
-1 -3 -6 15 0
2 -3 -4 10 0
-2 -4 -5 -20 0
-6 -14 -18 -20 0
-2 6 8 13 0
-1 -10 18 -20 0
4 -12 -14 -15 0
6 8 17 19 0
5 13 -15 20 0
3 -7 -12 -15 0
-3 -5 -10 -20 0
3 -7 -11 -14 0
-1 -10 11 18 0
-1 16 17 -20 0
-1 -9 11 15 0
-4 -5 7 -11 0
-3 7 14 -20 0
-10 12 -19 20 0
-7 8 11 12 0
-8 11 14 -15 0
9 -14 16 17 0
-7 -13 -14 15 0
-11 -12 -13 -17 0
-1 8 10 -11 0
-1 2 -5 -15 0
-8 -9 -12 -16 0
-8 -10 15 19 0
10 12 15 20 0
4 6 7 20 0
-3 -9 -14 16 0
-2 -7 -8 16 0
-3 -4 5 20 0
-4 10 -14 16 0
-4 -9 16 18 0
1 -3 -11 17 0
1 -13 17 -19 0
-1 2 8 15 0
6 -9 12 13 0
-5 -7 -18 -19 0
-5 6 -11 16 0
-1 -7 -9 -20 0
4 5 -15 20 0
-11 15 19 -20 0
7 -13 15 17 0
5 8 -17 20 0
-1 5 7 11 0
-6 14 16 17 0
-2 -10 13 16 0
7 -16 -19 20 0
3 -4 -9 13 0
5 -6 -11 -18 0
1 -5 12 17 0
2 9 -12 -13 0
3 9 -18 20 0
-3 -4 -8 19 0
9 12 13 18 0
-1 -2 -5 17 0
2 8 14 -17 0
-3 6 7 13 0
-3 -13 -16 -20 0
-8 9 -15 18 0
2 -9 -11 19 0
1 -6 10 -15 0
-2 5 -15 -19 0
-1 4 -8 13 0
6 9 12 20 0
1 7 12 14 0
2 -16 -17 18 0
-1 -13 -14 -18 0
1 -2 -5 -11 0
-7 -10 -16 20 0
-2 9 12 -14 0
-3 11 -17 -19 0
6 -10 15 20 0
-3 4 -8 15 0
-1 7 12 16 0
-2 6 18 -20 0
8 -10 12 14 0
8 10 -12 15 0
